proyfinal/src/viki/013/experimentInOfficeAgust.take6.output/012a92ef-fb5c-4e33-9067-5bfcdb74b232.als.dat
{'cnf.clauses': '118081',
 'cnf.totvars': '69608',
 'conflict literals': '60',
 'conflicts': '19',
 'decisions': '7378',
 'memused.mb': '16.37',
 'outcome': 'UNSAT',
 'propagations': '31544',
 'restarts': '1',
 'solver.msecs': 41,
 'task.msecs': 93}
