proyfinal/src/viki/013/experimentInOfficeAgust.take6.output/012a92ef-fb5c-4e33-9067-5bfcdb74b232.als.out
Reading from standard input... Use '--help' for help.
============================[ Problem Statistics ]=============================
|                                                                             |
|  Number of variables:         69608                                         |
|  Number of clauses:          118081                                         |
|  Parse time:                   0.03 s                                       |
|                                                                             |
============================[ Search Statistics ]==============================
| Conflicts |          ORIGINAL         |          LEARNT          | Progress |
|           |    Vars  Clauses Literals |    Limit  Clauses Lit/Cl |          |
===============================================================================
===============================================================================
restarts              : 1
conflicts             : 19             (453 /sec)
decisions             : 7378           (0.00 % random) (175805 /sec)
propagations          : 31544          (751638 /sec)
conflict literals     : 60             (0.00 % deleted)
Memory used           : 16.37 MB
CPU time              : 0.041967 s

UNSATISFIABLE
